&CONTROL
   calculation     = 'scf'
   outdir          = 'pwscf_output'
   prefix          = 'pwscf'
   pseudo_dir      = './'
/

&SYSTEM
   degauss         = 0.0001
   ecutrho         = 600
   ecutwfc         = 300
   ibrav           = 0
   input_dft       = 'pbe'
   nat             = 2
   nosym           = .false.
   nspin           = 1
   ntyp            = 1
   occupations     = 'smearing'
   smearing        = 'gaussian'
   tot_charge      = 0
/

&ELECTRONS
   conv_thr        = 1e-09
   electron_maxstep = 200
   mixing_beta     = 0.7
/


ATOMIC_SPECIES 
   C  12.011 C.ccECP.upf

ATOMIC_POSITIONS bohr
   C        0.00000000       0.00000000       0.00000000 
   C        1.68700061       1.68700061       1.68700061 

K_POINTS automatic
   8 8 8  0 0 0 

CELL_PARAMETERS bohr
         3.37400122       3.37400122       0.00000000 
        -0.00000000       3.37400122       3.37400122 
         3.37400122      -0.00000000       3.37400122 


